NAME: tsp25_7
COMMENT: 25-tsp problem (Padberg/Rinaldi)
TYPE: TSP
DIMENSION: 25
EDGE_WEIGHT_TYPE : EUC_2D
NODE_COORD_SECTION
1 37 33
2 32 13
3 6 28
4 36 14
5 35 12
6 5 14
7 19 22
8 2 11
9 24 2
10 14 39
11 19 35
12 37 4
13 16 17
14 16 36
15 3 34
16 21 6
17 3 14
18 18 21
19 2 22
20 29 21
21 25 1
22 11 1
23 39 3
24 11 34
25 12 28
